unknown
(model
; cardinality of BoundSet is 3
(declare-sort BoundSet 0)
; rep: @uc_BoundSet_0
; rep: @uc_BoundSet_1
; rep: @uc_BoundSet_2
(declare-sort UnboundSet 0)
(define-fun IsRaisedBy ((BOUND_VARIABLE_422 BoundSet) (BOUND_VARIABLE_423 BoundSet)) Bool true)
(define-fun IsAtLeast ((BOUND_VARIABLE_428 BoundSet)) Bool true)
(define-fun IsFirstHundredDaysOf ((BOUND_VARIABLE_428 BoundSet)) Bool false)
)
